(benchmark gametime
:status unknown
:logic QF_AUFBV
:extrafuns ((gtINDEX67  BitVec[32]))
:extrafuns ((gtFIELD__bitsForTID0__gtAGG____anonstruct_D_Work_4  Array[32:32]))
:extrafuns ((gtINDEX68  BitVec[32]))
:extrafuns ((gtAGG__rtDWork  BitVec[32]))
:extrafuns ((gtINDEX65  BitVec[32]))
:extrafuns ((gtINDEX66  BitVec[32]))
:extrafuns ((gtINDEX63  BitVec[32]))
:extrafuns ((gtINDEX64  BitVec[32]))
:extrafuns ((gtINDEX61  BitVec[32]))
:extrafuns ((gtINDEX62  BitVec[32]))
:extrafuns ((gtINDEX60  BitVec[32]))
:extrafuns ((gtINDEX59  BitVec[32]))
:extrafuns ((gtINDEX58  BitVec[32]))
:extrafuns ((gtINDEX57  BitVec[32]))
:extrafuns ((gtINDEX55  BitVec[32]))
:extrafuns ((gtINDEX56  BitVec[32]))
:extrafuns ((gtINDEX53  BitVec[32]))
:extrafuns ((gtINDEX54  BitVec[32]))
:extrafuns ((gtINDEX51  BitVec[32]))
:extrafuns ((gtINDEX52  BitVec[32]))
:extrafuns ((gtINDEX49  BitVec[32]))
:extrafuns ((gtINDEX50  BitVec[32]))
:extrafuns ((gtINDEX47  BitVec[32]))
:extrafuns ((gtINDEX48  BitVec[32]))
:extrafuns ((gtINDEX46  BitVec[32]))
:extrafuns ((gtINDEX44  BitVec[32]))
:extrafuns ((gtINDEX45  BitVec[32]))
:extrafuns ((gtINDEX42  BitVec[32]))
:extrafuns ((gtINDEX43  BitVec[32]))
:extrafuns ((gtINDEX40  BitVec[32]))
:extrafuns ((gtINDEX41  BitVec[32]))
:extrafuns ((gtINDEX38  BitVec[32]))
:extrafuns ((gtINDEX39  BitVec[32]))
:extrafuns ((gtINDEX37  BitVec[32]))
:extrafuns ((gtINDEX35  BitVec[32]))
:extrafuns ((gtINDEX36  BitVec[32]))
:extrafuns ((gtINDEX34  BitVec[32]))
:extrafuns ((gtINDEX32  BitVec[32]))
:extrafuns ((gtINDEX33  BitVec[32]))
:extrafuns ((gtINDEX30  BitVec[32]))
:extrafuns ((gtINDEX31  BitVec[32]))
:extrafuns ((gtINDEX29  BitVec[32]))
:extrafuns ((gtINDEX28  BitVec[32]))
:extrafuns ((gtINDEX27  BitVec[32]))
:extrafuns ((gtINDEX26  BitVec[32]))
:extrafuns ((gtINDEX25  BitVec[32]))
:extrafuns ((gtINDEX24  BitVec[32]))
:extrafuns ((gtINDEX22  BitVec[32]))
:extrafuns ((gtINDEX23  BitVec[32]))
:extrafuns ((gtINDEX20  BitVec[32]))
:extrafuns ((gtINDEX21  BitVec[32]))
:extrafuns ((gtINDEX18  BitVec[32]))
:extrafuns ((gtINDEX19  BitVec[32]))
:extrafuns ((gtINDEX16  BitVec[32]))
:extrafuns ((gtINDEX17  BitVec[32]))
:extrafuns ((gtINDEX14  BitVec[32]))
:extrafuns ((gtINDEX15  BitVec[32]))
:extrafuns ((gtINDEX13  BitVec[32]))
:extrafuns ((gtINDEX11  BitVec[32]))
:extrafuns ((gtINDEX12  BitVec[32]))
:extrafuns ((gtINDEX10  BitVec[32]))
:extrafuns ((gtINDEX8  BitVec[32]))
:extrafuns ((gtINDEX9  BitVec[32]))
:extrafuns ((gtINDEX6  BitVec[32]))
:extrafuns ((gtINDEX7  BitVec[32]))
:extrafuns ((gtINDEX4  BitVec[32]))
:extrafuns ((gtINDEX5  BitVec[32]))
:extrafuns ((gtINDEX2  BitVec[32]))
:extrafuns ((gtINDEX3  BitVec[32]))
:extrafuns ((gtINDEX0  BitVec[32]))
:extrafuns ((gtINDEX1  BitVec[32]))
:extrafuns ((gtFIELD__is_Eng__gtAGG____anonstruct_bitsForTID0_5_1_  Array[32:1]))
:extrafuns ((gtFIELD__is_Eng__gtAGG____anonstruct_bitsForTID0_5_2_  Array[32:1]))
:extrafuns ((sf_previousEvent_1_  BitVec[32]))
:extrafuns ((sfEvent__2_  BitVec[32]))
:extrafuns ((gtFIELD__is_Eng__gtAGG____anonstruct_bitsForTID0_5  Array[32:1]))
:extrafuns ((gtFIELD__sent__gtAGG____anonstruct_D_Work_4_1_  Array[32:32]))
:extrafuns ((gtFIELD__sent__gtAGG____anonstruct_D_Work_4_2_  Array[32:32]))
:extrafuns ((gtFIELD__is_active_Eng__gtAGG____anonstruct_bitsForTID0_5  Array[32:1]))
:extrafuns ((gtFIELD__is_active_PURI__gtAGG____anonstruct_bitsForTID0_5  Array[32:1]))
:extrafuns ((sfEvent__1_  BitVec[32]))
:extrafuns ((gtFIELD__is_PVRP__gtAGG____anonstruct_bitsForTID0_5  Array[32:2]))
:extrafuns ((gtFIELD__is_active_PVRP__gtAGG____anonstruct_bitsForTID0_5  Array[32:1]))
:extrafuns ((gtFIELD__is_PPVARP__gtAGG____anonstruct_bitsForTID0_5_1_  Array[32:2]))
:extrafuns ((gtFIELD__is_active_PPVARP__gtAGG____anonstruct_bitsForTID0_5  Array[32:1]))
:extrafuns ((gtFIELD__is_active_PLRI__gtAGG____anonstruct_bitsForTID0_5  Array[32:1]))
:extrafuns ((gtFIELD__temporalCounter_i1__gtAGG____anonstruct_D_Work_4  Array[32:32]))
:extrafuns ((gtFIELD__temporalCounter_i1__gtAGG____anonstruct_D_Work_4_1_  Array[32:32]))
:extrafuns ((gtFIELD__is_PAVI__gtAGG____anonstruct_bitsForTID0_5  Array[32:3]))
:extrafuns ((gtFIELD__is_PAVI__gtAGG____anonstruct_bitsForTID0_5_1_  Array[32:3]))
:extrafuns ((gtFIELD__n_t__gtAGG____anonstruct_D_Work_4  Array[32:32]))
:extrafuns ((gtFIELD__n_t__gtAGG____anonstruct_D_Work_4_1_  Array[32:32]))
:extrafuns ((gtFIELD__is_active_PAVI__gtAGG____anonstruct_bitsForTID0_5  Array[32:1]))
:extrafuns ((sfEvent_  BitVec[32]))
:extrafuns ((gtFIELD__sent__gtAGG____anonstruct_D_Work_4  Array[32:32]))
:extrafuns ((gtFIELD__temporalCounter_i3__gtAGG____anonstruct_D_Work_4  Array[32:32]))
:extrafuns ((gtFIELD__temporalCounter_i3__gtAGG____anonstruct_D_Work_4_1_  Array[32:32]))
:extrafuns ((gtFIELD__is_PPVARP__gtAGG____anonstruct_bitsForTID0_5  Array[32:2]))
:extrafuns ((gtFIELD__n_t_b__gtAGG____anonstruct_D_Work_4  Array[32:32]))
:extrafuns ((gtFIELD__n_t_b__gtAGG____anonstruct_D_Work_4_1_  Array[32:32]))
:extrapreds ((constraint125 ))
:extrapreds ((constraint124 ))
:extrapreds ((constraint123 ))
:extrapreds ((constraint122 ))
:extrapreds ((constraint121 ))
:extrapreds ((constraint120 ))
:extrapreds ((constraint119 ))
:extrapreds ((constraint118 ))
:extrapreds ((constraint117 ))
:extrapreds ((constraint116 ))
:extrapreds ((constraint115 ))
:extrapreds ((constraint114 ))
:extrapreds ((constraint113 ))
:extrapreds ((constraint112 ))
:extrapreds ((constraint111 ))
:extrapreds ((constraint110 ))
:extrapreds ((constraint109 ))
:extrapreds ((constraint108 ))
:extrapreds ((constraint107 ))
:extrapreds ((constraint106 ))
:extrapreds ((constraint105 ))
:extrapreds ((constraint104 ))
:extrapreds ((constraint103 ))
:extrapreds ((constraint102 ))
:extrapreds ((constraint101 ))
:extrapreds ((constraint100 ))
:extrapreds ((constraint99 ))
:extrapreds ((constraint98 ))
:extrapreds ((constraint97 ))
:extrapreds ((constraint96 ))
:extrapreds ((constraint95 ))
:extrapreds ((constraint94 ))
:extrapreds ((constraint93 ))
:extrapreds ((constraint92 ))
:extrapreds ((constraint91 ))
:extrapreds ((constraint90 ))
:extrapreds ((constraint89 ))
:extrapreds ((constraint88 ))
:extrapreds ((constraint87 ))
:extrapreds ((constraint86 ))
:extrapreds ((constraint85 ))
:extrapreds ((constraint84 ))
:extrapreds ((constraint83 ))
:extrapreds ((constraint82 ))
:extrapreds ((constraint81 ))
:extrapreds ((constraint80 ))
:extrapreds ((constraint79 ))
:extrapreds ((constraint78 ))
:extrapreds ((constraint77 ))
:extrapreds ((constraint76 ))
:extrapreds ((constraint75 ))
:extrapreds ((constraint74 ))
:extrapreds ((constraint73 ))
:extrapreds ((constraint72 ))
:extrapreds ((constraint71 ))
:extrapreds ((constraint70 ))
:extrapreds ((constraint69 ))
:extrapreds ((constraint68 ))
:extrapreds ((constraint67 ))
:extrapreds ((constraint66 ))
:extrapreds ((constraint65 ))
:extrapreds ((constraint64 ))
:extrapreds ((constraint63 ))
:extrapreds ((constraint62 ))
:extrapreds ((constraint61 ))
:extrapreds ((constraint60 ))
:extrapreds ((constraint59 ))
:extrapreds ((constraint58 ))
:extrapreds ((constraint57 ))
:extrapreds ((constraint56 ))
:extrapreds ((constraint55 ))
:extrapreds ((constraint54 ))
:extrapreds ((constraint53 ))
:extrapreds ((constraint52 ))
:extrapreds ((constraint51 ))
:extrapreds ((constraint50 ))
:extrapreds ((constraint49 ))
:extrapreds ((constraint48 ))
:extrapreds ((constraint47 ))
:extrapreds ((constraint46 ))
:extrapreds ((constraint45 ))
:extrapreds ((constraint44 ))
:extrapreds ((constraint43 ))
:extrapreds ((constraint42 ))
:extrapreds ((constraint41 ))
:extrapreds ((constraint40 ))
:extrapreds ((constraint39 ))
:extrapreds ((constraint38 ))
:extrapreds ((constraint37 ))
:extrapreds ((constraint36 ))
:extrapreds ((constraint35 ))
:extrapreds ((constraint34 ))
:extrapreds ((constraint33 ))
:extrapreds ((constraint32 ))
:extrapreds ((constraint31 ))
:extrapreds ((constraint30 ))
:extrapreds ((constraint29 ))
:extrapreds ((constraint28 ))
:extrapreds ((constraint27 ))
:extrapreds ((constraint26 ))
:extrapreds ((constraint25 ))
:extrapreds ((constraint24 ))
:extrapreds ((constraint23 ))
:extrapreds ((constraint22 ))
:extrapreds ((constraint21 ))
:extrapreds ((constraint20 ))
:extrapreds ((constraint19 ))
:extrapreds ((constraint18 ))
:extrapreds ((constraint17 ))
:extrapreds ((constraint16 ))
:extrapreds ((constraint15 ))
:extrapreds ((constraint14 ))
:extrapreds ((constraint13 ))
:extrapreds ((constraint12 ))
:extrapreds ((constraint11 ))
:extrapreds ((constraint10 ))
:extrapreds ((constraint9 ))
:extrapreds ((constraint8 ))
:extrapreds ((constraint7 ))
:extrapreds ((constraint6 ))
:extrapreds ((constraint5 ))
:extrapreds ((constraint4 ))
:extrapreds ((constraint3 ))
:extrapreds ((constraint2 ))
:extrapreds ((constraint1 ))
:extrapreds ((constraint0 ))
:formula
(flet ($x637 (and constraint0 constraint1 constraint2 constraint3 constraint4 constraint5 constraint6 constraint7 constraint8 constraint9 constraint10 constraint11 constraint12 constraint13 constraint14 constraint15 constraint16 constraint17 constraint18 constraint19 constraint20 constraint21 constraint22 constraint23 constraint24 constraint25 constraint26 constraint27 constraint28 constraint29 constraint30 constraint31 constraint32 constraint33 constraint34 constraint35 constraint36 constraint37 constraint38 constraint39 constraint40 constraint41 constraint42 constraint43 constraint44 constraint45 constraint46 constraint47 constraint48 constraint49 constraint50 constraint51 constraint52 constraint53 constraint54 constraint55 constraint56 constraint57 constraint58 constraint59 constraint60 constraint61 constraint62 constraint63 constraint64 constraint65 constraint66 constraint67 constraint68 constraint69 constraint70 constraint71 constraint72 constraint73 constraint74 constraint75 constraint76 constraint77 constraint78 constraint79 constraint80 constraint81 constraint82 constraint83 constraint84 constraint85 constraint86 constraint87 constraint88 constraint89 constraint90 constraint91 constraint92 constraint93 constraint94 constraint95 constraint96 constraint97 constraint98 constraint99 constraint100 constraint101 constraint102 constraint103 constraint104 constraint105 constraint106 constraint107 constraint108 constraint109 constraint110 constraint111 constraint112 constraint113 constraint114 constraint115 constraint116 constraint117 constraint118 constraint119 constraint120 constraint121 constraint122 constraint123 constraint124 constraint125))
(flet ($x383 (= gtINDEX68 (select gtFIELD__bitsForTID0__gtAGG____anonstruct_D_Work_4 gtINDEX67)))
(flet ($x379 (= gtINDEX66 (select gtFIELD__bitsForTID0__gtAGG____anonstruct_D_Work_4 gtINDEX65)))
(flet ($x375 (= gtINDEX64 (select gtFIELD__bitsForTID0__gtAGG____anonstruct_D_Work_4 gtINDEX63)))
(flet ($x371 (= gtINDEX62 (select gtFIELD__bitsForTID0__gtAGG____anonstruct_D_Work_4 gtINDEX61)))
(flet ($x363 (= gtINDEX56 (select gtFIELD__bitsForTID0__gtAGG____anonstruct_D_Work_4 gtINDEX55)))
(flet ($x359 (= gtINDEX54 (select gtFIELD__bitsForTID0__gtAGG____anonstruct_D_Work_4 gtINDEX53)))
(flet ($x355 (= gtINDEX52 (select gtFIELD__bitsForTID0__gtAGG____anonstruct_D_Work_4 gtINDEX51)))
(flet ($x351 (= gtINDEX50 (select gtFIELD__bitsForTID0__gtAGG____anonstruct_D_Work_4 gtINDEX49)))
(flet ($x347 (= gtINDEX48 (select gtFIELD__bitsForTID0__gtAGG____anonstruct_D_Work_4 gtINDEX47)))
(flet ($x342 (= gtINDEX45 (select gtFIELD__bitsForTID0__gtAGG____anonstruct_D_Work_4 gtINDEX44)))
(flet ($x338 (= gtINDEX43 (select gtFIELD__bitsForTID0__gtAGG____anonstruct_D_Work_4 gtINDEX42)))
(flet ($x334 (= gtINDEX41 (select gtFIELD__bitsForTID0__gtAGG____anonstruct_D_Work_4 gtINDEX40)))
(flet ($x330 (= gtINDEX39 (select gtFIELD__bitsForTID0__gtAGG____anonstruct_D_Work_4 gtINDEX38)))
(flet ($x325 (= gtINDEX36 (select gtFIELD__bitsForTID0__gtAGG____anonstruct_D_Work_4 gtINDEX35)))
(flet ($x320 (= gtINDEX33 (select gtFIELD__bitsForTID0__gtAGG____anonstruct_D_Work_4 gtINDEX32)))
(flet ($x316 (= gtINDEX31 (select gtFIELD__bitsForTID0__gtAGG____anonstruct_D_Work_4 gtINDEX30)))
(flet ($x306 (= gtINDEX23 (select gtFIELD__bitsForTID0__gtAGG____anonstruct_D_Work_4 gtINDEX22)))
(flet ($x302 (= gtINDEX21 (select gtFIELD__bitsForTID0__gtAGG____anonstruct_D_Work_4 gtINDEX20)))
(flet ($x298 (= gtINDEX19 (select gtFIELD__bitsForTID0__gtAGG____anonstruct_D_Work_4 gtINDEX18)))
(flet ($x294 (= gtINDEX17 (select gtFIELD__bitsForTID0__gtAGG____anonstruct_D_Work_4 gtINDEX16)))
(flet ($x290 (= gtINDEX15 (select gtFIELD__bitsForTID0__gtAGG____anonstruct_D_Work_4 gtINDEX14)))
(flet ($x285 (= gtINDEX12 (select gtFIELD__bitsForTID0__gtAGG____anonstruct_D_Work_4 gtINDEX11)))
(flet ($x280 (= gtINDEX9 (select gtFIELD__bitsForTID0__gtAGG____anonstruct_D_Work_4 gtINDEX8)))
(flet ($x276 (= gtINDEX7 (select gtFIELD__bitsForTID0__gtAGG____anonstruct_D_Work_4 gtINDEX6)))
(flet ($x272 (= gtINDEX5 (select gtFIELD__bitsForTID0__gtAGG____anonstruct_D_Work_4 gtINDEX4)))
(flet ($x268 (= gtINDEX3 (select gtFIELD__bitsForTID0__gtAGG____anonstruct_D_Work_4 gtINDEX2)))
(flet ($x264 (= gtINDEX1 (select gtFIELD__bitsForTID0__gtAGG____anonstruct_D_Work_4 gtINDEX0)))
(let (?x248 (extract[0:0] bv1[32]))
(let (?x258 (store gtFIELD__is_Eng__gtAGG____anonstruct_bitsForTID0_5_1_ gtINDEX68 ?x248))
(flet ($x497 (iff constraint56 (= gtFIELD__is_Eng__gtAGG____anonstruct_bitsForTID0_5_2_ ?x258)))
(let (?x254 (select gtFIELD__is_Eng__gtAGG____anonstruct_bitsForTID0_5_1_ gtINDEX66))
(let (?x249 (store gtFIELD__is_Eng__gtAGG____anonstruct_bitsForTID0_5 gtINDEX64 ?x248))
(flet ($x491 (iff constraint53 (= gtFIELD__is_Eng__gtAGG____anonstruct_bitsForTID0_5_1_ ?x249)))
(let (?x245 (zero_extend[31] (select gtFIELD__is_Eng__gtAGG____anonstruct_bitsForTID0_5 gtINDEX62)))
(let (?x241 (store gtFIELD__sent__gtAGG____anonstruct_D_Work_4_1_ gtINDEX60 bv0[32]))
(flet ($x487 (iff constraint51 (= gtFIELD__sent__gtAGG____anonstruct_D_Work_4_2_ ?x241)))
(let (?x137 (bvmul bv4294967295[32] bv1[32]))
(flet ($x239 (= (select gtFIELD__sent__gtAGG____anonstruct_D_Work_4_1_ gtINDEX59) ?x137))
(flet ($x235 (= (select gtFIELD__sent__gtAGG____anonstruct_D_Work_4_1_ gtINDEX58) bv9[32]))
(flet ($x231 (= (select gtFIELD__sent__gtAGG____anonstruct_D_Work_4_1_ gtINDEX57) bv4[32]))
(let (?x227 (zero_extend[31] (select gtFIELD__is_Eng__gtAGG____anonstruct_bitsForTID0_5 gtINDEX56)))
(let (?x221 (select gtFIELD__is_active_Eng__gtAGG____anonstruct_bitsForTID0_5 gtINDEX54))
(let (?x215 (select gtFIELD__is_active_PURI__gtAGG____anonstruct_bitsForTID0_5 gtINDEX52))
(let (?x207 (select gtFIELD__is_PVRP__gtAGG____anonstruct_bitsForTID0_5 gtINDEX50))
(let (?x202 (select gtFIELD__is_active_PVRP__gtAGG____anonstruct_bitsForTID0_5 gtINDEX48))
(flet ($x199 (= (select gtFIELD__sent__gtAGG____anonstruct_D_Work_4_1_ gtINDEX46) bv0[32]))
(let (?x194 (select gtFIELD__is_PPVARP__gtAGG____anonstruct_bitsForTID0_5_1_ gtINDEX45))
(let (?x189 (select gtFIELD__is_PPVARP__gtAGG____anonstruct_bitsForTID0_5_1_ gtINDEX43))
(let (?x184 (select gtFIELD__is_active_PPVARP__gtAGG____anonstruct_bitsForTID0_5 gtINDEX41))
(let (?x178 (select gtFIELD__is_active_PLRI__gtAGG____anonstruct_bitsForTID0_5 gtINDEX39))
(let (?x175 (store gtFIELD__temporalCounter_i1__gtAGG____anonstruct_D_Work_4 gtINDEX37 bv0[32]))
(flet ($x455 (iff constraint35 (= gtFIELD__temporalCounter_i1__gtAGG____anonstruct_D_Work_4_1_ ?x175)))
(let (?x172 (store gtFIELD__is_PAVI__gtAGG____anonstruct_bitsForTID0_5 gtINDEX36 (extract[2:0] bv2[32])))
(flet ($x453 (iff constraint34 (= gtFIELD__is_PAVI__gtAGG____anonstruct_bitsForTID0_5_1_ ?x172)))
(flet ($x169 (= gtFIELD__n_t__gtAGG____anonstruct_D_Work_4_1_ (store gtFIELD__n_t__gtAGG____anonstruct_D_Work_4 gtINDEX34 bv0[32])))
(let (?x162 (select gtFIELD__is_PAVI__gtAGG____anonstruct_bitsForTID0_5 gtINDEX33))
(let (?x157 (select gtFIELD__is_active_PAVI__gtAGG____anonstruct_bitsForTID0_5 gtINDEX31))
(flet ($x149 (= gtFIELD__sent__gtAGG____anonstruct_D_Work_4_1_ (store gtFIELD__sent__gtAGG____anonstruct_D_Work_4 gtINDEX29 ?x137)))
(flet ($x146 (= (select gtFIELD__sent__gtAGG____anonstruct_D_Work_4 gtINDEX28) bv2[32]))
(flet ($x142 (= (select gtFIELD__sent__gtAGG____anonstruct_D_Work_4 gtINDEX27) bv1[32]))
(flet ($x138 (= (select gtFIELD__sent__gtAGG____anonstruct_D_Work_4 gtINDEX26) ?x137))
(flet ($x132 (= (select gtFIELD__sent__gtAGG____anonstruct_D_Work_4 gtINDEX25) bv9[32]))
(flet ($x127 (= (select gtFIELD__sent__gtAGG____anonstruct_D_Work_4 gtINDEX24) bv4[32]))
(let (?x123 (zero_extend[31] (select gtFIELD__is_Eng__gtAGG____anonstruct_bitsForTID0_5 gtINDEX23)))
(let (?x117 (select gtFIELD__is_active_Eng__gtAGG____anonstruct_bitsForTID0_5 gtINDEX21))
(let (?x111 (select gtFIELD__is_active_PURI__gtAGG____anonstruct_bitsForTID0_5 gtINDEX19))
(let (?x105 (select gtFIELD__is_PVRP__gtAGG____anonstruct_bitsForTID0_5 gtINDEX17))
(let (?x100 (select gtFIELD__is_active_PVRP__gtAGG____anonstruct_bitsForTID0_5 gtINDEX15))
(let (?x97 (store gtFIELD__temporalCounter_i3__gtAGG____anonstruct_D_Work_4 gtINDEX13 bv0[32]))
(flet ($x409 (iff constraint12 (= gtFIELD__temporalCounter_i3__gtAGG____anonstruct_D_Work_4_1_ ?x97)))
(let (?x94 (store gtFIELD__is_PPVARP__gtAGG____anonstruct_bitsForTID0_5 gtINDEX12 (extract[1:0] bv2[32])))
(flet ($x407 (iff constraint11 (= gtFIELD__is_PPVARP__gtAGG____anonstruct_bitsForTID0_5_1_ ?x94)))
(flet ($x91 (= gtFIELD__n_t_b__gtAGG____anonstruct_D_Work_4_1_ (store gtFIELD__n_t_b__gtAGG____anonstruct_D_Work_4 gtINDEX10 bv0[32])))
(let (?x81 (select gtFIELD__is_PPVARP__gtAGG____anonstruct_bitsForTID0_5 gtINDEX9))
(let (?x76 (select gtFIELD__is_active_PPVARP__gtAGG____anonstruct_bitsForTID0_5 gtINDEX7))
(let (?x70 (select gtFIELD__is_active_PLRI__gtAGG____anonstruct_bitsForTID0_5 gtINDEX5))
(let (?x60 (zero_extend[29] (select gtFIELD__is_PAVI__gtAGG____anonstruct_bitsForTID0_5 gtINDEX3)))
(let (?x53 (select gtFIELD__is_active_PAVI__gtAGG____anonstruct_bitsForTID0_5 gtINDEX1))
(flet ($x636 (and (iff constraint0 (not (= sfEvent_ bv8[32]))) (iff constraint1 (not (= (zero_extend[31] ?x53) bv0[32]))) (iff constraint2 (= ?x60 bv1[32])) (iff constraint3 (not (= sfEvent_ bv2[32]))) (iff constraint4 (not (= sfEvent_ bv3[32]))) (iff constraint5 (not (not (= (zero_extend[31] ?x70) bv0[32])))) (iff constraint6 (not (= (zero_extend[31] ?x76) bv0[32]))) (iff constraint7 (= (zero_extend[30] ?x81) bv1[32])) (iff constraint8 (not (= sfEvent_ bv4[32]))) (iff constraint9 (= sfEvent_ bv5[32])) (iff constraint10 $x91) $x407 $x409 (iff constraint13 (not (= (zero_extend[31] ?x100) bv0[32]))) (iff constraint14 (= (zero_extend[30] ?x105) bv1[32])) (iff constraint15 (not (= sfEvent_ bv0[32]))) (iff constraint16 (not (= sfEvent_ bv4[32]))) (iff constraint17 (not (not (= (zero_extend[31] ?x111) bv0[32])))) (iff constraint18 (not (= (zero_extend[31] ?x117) bv0[32]))) (iff constraint19 (= ?x123 bv1[32])) (iff constraint20 (not $x127)) (iff constraint21 (not $x132)) (iff constraint22 (not $x138)) (iff constraint23 (not $x142)) (iff constraint24 $x146) (iff constraint25 $x149) (iff constraint26 (= sf_previousEvent_1_ sfEvent_)) (iff constraint27 (= sfEvent__1_ bv3[32])) (iff constraint28 (not (= sfEvent__1_ bv8[32]))) (iff constraint29 (not (= (zero_extend[31] ?x157) bv0[32]))) (iff constraint30 (= (zero_extend[29] ?x162) bv1[32])) (iff constraint31 (not (= sfEvent__1_ bv2[32]))) (iff constraint32 (= sfEvent__1_ bv3[32])) (iff constraint33 $x169) $x453 $x455 (iff constraint36 (not (not (= (zero_extend[31] ?x178) bv0[32])))) (iff constraint37 (not (= (zero_extend[31] ?x184) bv0[32]))) (iff constraint38 (not (= (zero_extend[30] ?x189) bv1[32]))) (iff constraint39 (= (zero_extend[30] ?x194) bv2[32])) (iff constraint40 (not $x199)) (iff constraint41 (not (= (zero_extend[31] ?x202) bv0[32]))) (iff constraint42 (= (zero_extend[30] ?x207) bv1[32])) (iff constraint43 (not (= sfEvent__1_ bv0[32]))) (iff constraint44 (not (= sfEvent__1_ bv4[32]))) (iff constraint45 (not (not (= (zero_extend[31] ?x215) bv0[32])))) (iff constraint46 (not (= (zero_extend[31] ?x221) bv0[32]))) (iff constraint47 (= ?x227 bv1[32])) (iff constraint48 (not $x231)) (iff constraint49 (not $x235)) (iff constraint50 $x239) $x487 (iff constraint52 (= ?x245 bv1[32])) $x491 (iff constraint54 (= sfEvent__2_ sf_previousEvent_1_)) (iff constraint55 (= (zero_extend[31] ?x254) bv1[32])) $x497 (iff constraint57 (= gtINDEX0 gtAGG__rtDWork)) (iff constraint58 $x264) (iff constraint59 (= gtINDEX2 gtAGG__rtDWork)) (iff constraint60 $x268) (iff constraint61 (= gtINDEX4 gtAGG__rtDWork)) (iff constraint62 $x272) (iff constraint63 (= gtINDEX6 gtAGG__rtDWork)) (iff constraint64 $x276) (iff constraint65 (= gtINDEX8 gtAGG__rtDWork)) (iff constraint66 $x280) (iff constraint67 (= gtINDEX10 gtAGG__rtDWork)) (iff constraint68 (= gtINDEX11 gtAGG__rtDWork)) (iff constraint69 $x285) (iff constraint70 (= gtINDEX13 gtAGG__rtDWork)) (iff constraint71 (= gtINDEX14 gtAGG__rtDWork)) (iff constraint72 $x290) (iff constraint73 (= gtINDEX16 gtAGG__rtDWork)) (iff constraint74 $x294) (iff constraint75 (= gtINDEX18 gtAGG__rtDWork)) (iff constraint76 $x298) (iff constraint77 (= gtINDEX20 gtAGG__rtDWork)) (iff constraint78 $x302) (iff constraint79 (= gtINDEX22 gtAGG__rtDWork)) (iff constraint80 $x306) (iff constraint81 (= gtINDEX24 gtAGG__rtDWork)) (iff constraint82 (= gtINDEX25 gtAGG__rtDWork)) (iff constraint83 (= gtINDEX26 gtAGG__rtDWork)) (iff constraint84 (= gtINDEX27 gtAGG__rtDWork)) (iff constraint85 (= gtINDEX28 gtAGG__rtDWork)) (iff constraint86 (= gtINDEX29 gtAGG__rtDWork)) (iff constraint87 (= gtINDEX30 gtAGG__rtDWork)) (iff constraint88 $x316) (iff constraint89 (= gtINDEX32 gtAGG__rtDWork)) (iff constraint90 $x320) (iff constraint91 (= gtINDEX34 gtAGG__rtDWork)) (iff constraint92 (= gtINDEX35 gtAGG__rtDWork)) (iff constraint93 $x325) (iff constraint94 (= gtINDEX37 gtAGG__rtDWork)) (iff constraint95 (= gtINDEX38 gtAGG__rtDWork)) (iff constraint96 $x330) (iff constraint97 (= gtINDEX40 gtAGG__rtDWork)) (iff constraint98 $x334) (iff constraint99 (= gtINDEX42 gtAGG__rtDWork)) (iff constraint100 $x338) (iff constraint101 (= gtINDEX44 gtAGG__rtDWork)) (iff constraint102 $x342) (iff constraint103 (= gtINDEX46 gtAGG__rtDWork)) (iff constraint104 (= gtINDEX47 gtAGG__rtDWork)) (iff constraint105 $x347) (iff constraint106 (= gtINDEX49 gtAGG__rtDWork)) (iff constraint107 $x351) (iff constraint108 (= gtINDEX51 gtAGG__rtDWork)) (iff constraint109 $x355) (iff constraint110 (= gtINDEX53 gtAGG__rtDWork)) (iff constraint111 $x359) (iff constraint112 (= gtINDEX55 gtAGG__rtDWork)) (iff constraint113 $x363) (iff constraint114 (= gtINDEX57 gtAGG__rtDWork)) (iff constraint115 (= gtINDEX58 gtAGG__rtDWork)) (iff constraint116 (= gtINDEX59 gtAGG__rtDWork)) (iff constraint117 (= gtINDEX60 gtAGG__rtDWork)) (iff constraint118 (= gtINDEX61 gtAGG__rtDWork)) (iff constraint119 $x371) (iff constraint120 (= gtINDEX63 gtAGG__rtDWork)) (iff constraint121 $x375) (iff constraint122 (= gtINDEX65 gtAGG__rtDWork)) (iff constraint123 $x379) (iff constraint124 (= gtINDEX67 gtAGG__rtDWork)) (iff constraint125 $x383)))
(and $x636 $x637)))))))))))))))))))))))))))))))))))))))))))))))))))))))))))))))))))))))))))))))))
)
